/*********************************************
    * Lab01 - FCR
    * Author: Coso
    * Creation Date: Mar, 2019
    *********************************************/
instance_name = "medium_instance_22_FCR";

d = 5;
r = 15;

SCj = [304 288 307 301 306];
Dk = [81 48 65 59 73 58 50 20 57 59 14 61 52 94 36];

Cjk = [[37 86 69 75 84 56 71 68 48 69 56 85 60 31 74]
 [57 77 56 74 74 53 74 83 80 62 69 39 80 51 35]
 [60 84 85 86 36 81 47 54 54 62 53 41 81 44 63]
 [74 50 40 77 74 59 84 68 55 61 31 38 50 88 56]
 [80 64 82 70 41 31 48 76 65 37 87 83 56 50 66]];
Fjk = [[869 810 512 856 327 521 586 865 840 880 555 886 747 679 923]
 [588 800 552 921 702 534 745 417 549 930 510 699 747 807 746]
 [602 402 853 720 939 595 577 773 593 667 675 648 527 675 653]
 [842 616 670 806 672 844 476 411 483 845 518 842 673 904 329]
 [675 729 901 696 743 525 873 626 596 840 480 798 384 909 364]];
